
Gurobi 11.0.2 (win64) logging started Wed Aug  7 21:10:53 2024

Set parameter LogFile to value "D:\Documenti\Scuola\Laurea magistrale unibs\laurea-unibs-mkfsp\output\2024-08-07T17_25_17.381079\logs\instance11_bucket4.log"
Set parameter TimeLimit to value 100
Set parameter MIPGap to value 0
Gurobi Optimizer version 11.0.2 build v11.0.2rc0 (win64 - Windows 10.0 (19045.2))

CPU model: Intel(R) Core(TM) i5-4670 CPU @ 3.40GHz, instruction set [SSE2|AVX|AVX2]
Thread count: 4 physical cores, 4 logical processors, using up to 4 threads

Optimize a model with 5498 rows, 24226 columns and 675190 nonzeros
Model fingerprint: 0x7eb2b817
Variable types: 0 continuous, 24226 integer (23943 binary)
Coefficient statistics:
  Matrix range     [1e+00, 9e+03]
  Objective range  [6e+02, 9e+03]
  Bounds range     [1e+00, 1e+00]
  RHS range        [1e+00, 1e+06]
Presolve time: 1.43s
Presolved: 5498 rows, 24226 columns, 675190 nonzeros
Variable types: 0 continuous, 24226 integer (23943 binary)
Deterministic concurrent LP optimizer: primal simplex, dual simplex, and barrier
Showing barrier log only...

Root barrier log...

Ordering time: 0.07s

Barrier statistics:
 AA' NZ     : 7.259e+05
 Factor NZ  : 8.148e+05 (roughly 16 MB of memory)
 Factor Ops : 2.665e+08 (less than 1 second per iteration)
 Threads    : 1

                  Objective                Residual
Iter       Primal          Dual         Primal    Dual     Compl     Time
   0   1.01183214e+08  1.09905973e+08  5.12e+06 0.00e+00  7.18e+05     2s
   1   1.99971740e+07  1.13118738e+08  8.81e+05 4.55e-13  1.33e+05     2s
   2   1.62698675e+06  1.04377165e+08  1.01e+04 4.55e-13  3.81e+03     3s
   3   1.43272454e+06  4.04342698e+07  4.77e+02 1.45e-12  9.38e+02     3s
   4   1.42850969e+06  5.20823442e+06  1.17e-13 2.63e-13  8.71e+01     3s
   5   1.48602340e+06  1.66454504e+06  3.77e-14 3.38e-14  4.12e+00     3s
   6   1.49413299e+06  1.51678783e+06  2.30e-13 4.07e-14  5.22e-01     3s
   7   1.49650425e+06  1.49798482e+06  5.92e-13 3.82e-14  3.41e-02     3s
   8   1.49671471e+06  1.49692433e+06  3.70e-12 4.26e-14  4.83e-03     3s
   9   1.49677284e+06  1.49686261e+06  3.26e-11 2.93e-14  2.07e-03     3s
  10   1.49680887e+06  1.49681620e+06  4.90e-11 3.04e-14  1.69e-04     3s
  11   1.49681064e+06  1.49681083e+06  7.16e-13 4.80e-14  4.35e-06     4s
  12   1.49681066e+06  1.49681066e+06  2.56e-12 2.89e-14  4.50e-09     4s

Barrier solved model in 12 iterations and 3.72 seconds (2.76 work units)
Optimal objective 1.49681066e+06

  Building initial crossover basis                                 5s

Root crossover log...

    1863 DPushes remaining with DInf 4.5716755e-02                 6s
       0 DPushes remaining with DInf 0.0000000e+00                 6s

     169 PPushes remaining with PInf 6.4807636e-05                 6s
       0 PPushes remaining with PInf 0.0000000e+00                 7s

  Push phase complete: Pinf 0.0000000e+00, Dinf 3.7883299e-11      7s


Root simplex log...

Iteration    Objective       Primal Inf.    Dual Inf.      Time
    2031    1.4968107e+06   0.000000e+00   0.000000e+00      7s
Concurrent spin time: 0.00s

Solved with barrier
    2031    1.4968107e+06   0.000000e+00   0.000000e+00      7s

Root relaxation: objective 1.496811e+06, 2031 iterations, 4.95 seconds (3.21 work units)
Total elapsed time = 24.82s (DegenMoves)
Total elapsed time = 40.58s (DegenMoves)
Total elapsed time = 58.93s (DegenMoves)
Total elapsed time = 72.29s (DegenMoves)

    Nodes    |    Current Node    |     Objective Bounds      |     Work
 Expl Unexpl |  Obj  Depth IntInf | Incumbent    BestBd   Gap | It/Node Time

     0     0 1496810.66    0 2004          - 1496810.66      -     -   84s
     0     0          -    0               - 1496794.44      -     -  100s

Cutting planes:
  Cover: 804
  Clique: 36
  MIR: 435

Explored 1 nodes (92890 simplex iterations) in 100.06 seconds (115.89 work units)
Thread count was 4 (of 4 available processors)

Solution count 0

Time limit reached
Best objective -, best bound 1.496794439895e+06, gap -
